problems/GracefulWheelGraphs/GracefulWheelGraphs-models/compact/O2/minion/model-n06-solution000001.solution
language Essence 1.3

letting colouring be function(0 --> 0, 1 --> 1, 2 --> 6, 3 --> 2, 4 --> 10, 5 --> 3, 6 --> 12)
letting edgeID be
        function(0 --> 1, 1 --> 5, 2 --> 4, 3 --> 8, 4 --> 7, 5 --> 3, 6 --> 12, 7 --> 11, 8 --> 6, 9 --> 10, 10 --> 2,
                 11 --> 9)
